single_objective/SL-DABL/OP/problems/op/OPLib-master/solutions/ea4op/gen1/eil101-gen1-50.sol
NAME : eil101
TYPE : OP
DIMENSION : 101
COST_LIMIT : 315
ROUTE_NODES : 64
ROUTE_SCORE : 64
ROUTE_COST : 315
NODE_SEQUENCE_SECTION
1
50
76
77
3
79
78
81
33
51
30
32
90
63
10
62
88
7
48
82
8
83
60
5
84
61
16
91
100
37
98
85
93
92
59
99
96
6
94
95
97
87
13
58
40
21
73
72
74
22
75
56
39
25
55
54
80
68
12
26
53
101
27
69
-1
DEPOT_SECTION
1
-1
EOF
